problems/csplib-prob001/CarSequencing-models/noch/O2/lingeling/model-random06-solution000001.eprime-solution
language ESSENCE' 1.0

letting car_Function1D be
        [5, 19, 17, 13, 2, 6, 18, 2, 6, 5, 2, 4, 6, 18, 2, 19, 18, 2, 5, 15, 8, 5, 6, 18, 2, 2, 12, 2, 5, 6, 2, 17, 2,
         11, 6, 2, 2, 6, 2, 1, 12, 2, 2, 6, 2, 2, 17, 7, 2, 16, 2, 2, 18, 2, 2, 6, 11, 2, 6, 2, 2, 8, 22, 3, 17, 9, 2,
         18, 3, 6, 2, 17, 2, 9, 17, 2, 6, 2, 17, 2, 2, 20, 2, 2, 6, 2, 18, 2, 6, 2, 11, 8, 5, 2, 6, 2, 2, 17, 15, 2, 2,
         6, 2, 8, 6, 2, 2, 6, 21, 2, 18, 6, 2, 8, 2, 2, 6, 2, 2, 18, 2, 15, 2, 2, 6, 2, 8, 2, 6, 1, 2, 2, 6, 18, 2, 8,
         2, 17, 3, 6, 8, 2, 18, 2, 2, 23, 2, 2, 6, 2, 3, 6, 2, 24, 18, 2, 9, 18, 2, 8, 2, 2, 6, 2, 5, 8, 2, 7, 17, 2, 6,
         2, 2, 10, 2, 18, 6, 2, 17, 7, 2, 18, 6, 1, 2, 24, 6, 2, 2, 6, 8, 2, 6, 11, 2, 6, 5, 17, 14, 3; int(1..200)]
